p edge 606 1212
e 1 584
e 1 583
e 1 351
e 1 352
e 2 353
e 2 354
e 2 585
e 2 586
e 3 451
e 3 452
e 3 359
e 3 360
e 3 303
e 3 304
e 4 453
e 4 454
e 4 361
e 4 362
e 4 305
e 4 306
e 5 475
e 5 476
e 5 367
e 5 368
e 6 369
e 6 370
e 6 477
e 6 478
e 7 252
e 7 251
e 7 316
e 7 315
e 7 319
e 7 320
e 8 321
e 8 322
e 8 253
e 8 318
e 8 317
e 8 254
e 9 451
e 9 453
e 9 299
e 9 300
e 9 471
e 9 472
e 9 411
e 9 412
e 10 452
e 10 454
e 10 301
e 10 302
e 10 473
e 10 474
e 10 413
e 10 414
e 11 551
e 11 391
e 11 392
e 11 552
e 11 203
e 11 204
e 11 367
e 11 496
e 11 369
e 11 495
e 11 439
e 11 440
e 11 443
e 11 444
e 11 415
e 11 416
e 12 417
e 12 418
e 12 553
e 12 498
e 12 393
e 12 394
e 12 205
e 12 206
e 12 368
e 12 497
e 12 370
e 12 554
e 12 441
e 12 442
e 12 445
e 12 446
e 13 231
e 13 232
e 13 335
e 13 336
e 13 311
e 13 312
e 13 571
e 13 572
e 14 233
e 14 234
e 14 337
e 14 338
e 14 313
e 14 314
e 14 573
e 14 574
e 15 503
e 15 504
e 16 505
e 16 506
e 17 508
e 17 399
e 17 400
e 17 379
e 17 380
e 17 507
e 18 381
e 18 510
e 18 401
e 18 402
e 18 509
e 18 382
e 19 528
e 19 527
e 19 215
e 19 216
e 20 217
e 20 218
e 20 529
e 20 530
e 21 321
e 21 519
e 21 520
e 21 395
e 21 396
e 21 367
e 21 370
e 21 371
e 21 372
e 21 319
e 22 322
e 22 521
e 22 522
e 22 397
e 22 398
e 22 368
e 22 369
e 22 373
e 22 374
e 22 320
e 23 463
e 23 464
e 23 239
e 23 475
e 23 240
e 23 477
e 24 465
e 24 466
e 24 241
e 24 242
e 24 476
e 24 478
e 25 387
e 25 388
e 25 503
e 25 308
e 25 403
e 25 505
e 25 307
e 25 404
e 25 471
e 25 473
e 25 411
e 25 413
e 26 474
e 26 506
e 26 389
e 26 390
e 26 504
e 26 405
e 26 406
e 26 472
e 26 309
e 26 412
e 26 414
e 26 310
e 27 459
e 27 460
e 27 207
e 27 208
e 28 209
e 28 210
e 28 461
e 28 462
e 29 515
e 29 516
e 30 517
e 30 518
e 31 585
e 31 583
e 32 586
e 32 584
e 33 371
e 33 373
e 33 431
e 33 432
e 34 433
e 34 434
e 34 372
e 34 374
e 35 547
e 35 548
e 35 555
e 35 556
e 35 243
e 35 244
e 35 215
e 35 217
e 35 443
e 35 445
e 35 255
e 35 256
e 36 257
e 36 258
e 36 549
e 36 550
e 36 557
e 36 558
e 36 245
e 36 246
e 36 216
e 36 218
e 36 444
e 36 446
e 37 527
e 37 529
e 37 595
e 37 596
e 37 511
e 37 512
e 38 513
e 38 514
e 38 528
e 38 530
e 38 597
e 38 598
e 39 339
e 39 340
e 39 383
e 39 384
e 40 385
e 40 386
e 40 341
e 40 342
e 41 353
e 41 235
e 41 236
e 41 207
e 41 209
e 41 403
e 41 405
e 41 351
e 42 354
e 42 237
e 42 238
e 42 208
e 42 210
e 42 404
e 42 406
e 42 352
e 43 465
e 43 283
e 43 284
e 43 463
e 44 466
e 44 285
e 44 286
e 44 464
e 45 309
e 45 235
e 45 237
e 45 307
e 46 308
e 46 236
e 46 238
e 46 310
e 47 387
e 47 580
e 47 389
e 47 295
e 47 359
e 47 296
e 47 361
e 47 395
e 47 397
e 47 579
e 47 439
e 47 441
e 48 388
e 48 581
e 48 390
e 48 360
e 48 297
e 48 298
e 48 396
e 48 398
e 48 362
e 48 442
e 48 440
e 48 582
e 49 291
e 49 292
e 49 271
e 49 272
e 49 275
e 49 276
e 49 347
e 49 348
e 50 293
e 50 294
e 50 273
e 50 274
e 50 277
e 50 278
e 50 349
e 50 350
e 51 519
e 51 521
e 51 595
e 51 597
e 51 407
e 51 408
e 51 251
e 51 253
e 52 520
e 52 522
e 52 596
e 52 598
e 52 409
e 52 410
e 52 252
e 52 254
e 53 523
e 53 524
e 53 559
e 53 560
e 54 561
e 54 562
e 54 525
e 54 526
e 55 259
e 55 260
e 55 499
e 55 500
e 55 343
e 55 344
e 56 261
e 56 262
e 56 501
e 56 502
e 56 345
e 56 346
e 57 427
e 57 428
e 57 543
e 57 544
e 58 545
e 58 546
e 58 429
e 58 430
e 59 483
e 59 484
e 59 427
e 59 429
e 59 247
e 59 248
e 59 379
e 59 381
e 60 485
e 60 486
e 60 428
e 60 430
e 60 249
e 60 250
e 60 380
e 60 382
e 61 501
e 61 339
e 61 341
e 61 499
e 62 502
e 62 340
e 62 342
e 62 500
e 63 551
e 63 487
e 63 488
e 63 553
e 63 267
e 63 268
e 63 398
e 63 271
e 63 273
e 63 283
e 63 285
e 63 395
e 64 554
e 64 552
e 64 489
e 64 397
e 64 396
e 64 269
e 64 270
e 64 272
e 64 274
e 64 490
e 64 284
e 64 286
e 65 417
e 65 259
e 65 261
e 65 327
e 65 328
e 65 415
e 66 418
e 66 260
e 66 262
e 66 329
e 66 330
e 66 416
e 67 227
e 67 228
e 67 467
e 67 468
e 67 411
e 67 414
e 67 447
e 67 448
e 68 449
e 68 450
e 68 229
e 68 230
e 68 469
e 68 470
e 68 412
e 68 413
e 69 275
e 69 277
e 69 403
e 69 406
e 70 405
e 70 276
e 70 404
e 70 278
e 71 449
e 71 447
e 71 279
e 71 280
e 72 281
e 72 282
e 72 450
e 72 448
e 73 391
e 73 393
e 73 459
e 73 492
e 73 461
e 73 467
e 73 275
e 73 469
e 73 278
e 73 507
e 73 509
e 73 491
e 73 223
e 73 224
e 74 225
e 74 226
e 74 392
e 74 394
e 74 460
e 74 493
e 74 462
e 74 468
e 74 494
e 74 276
e 74 277
e 74 470
e 74 508
e 74 510
e 75 451
e 75 523
e 75 525
e 75 454
e 76 524
e 76 452
e 76 453
e 76 526
e 77 259
e 77 262
e 77 591
e 77 592
e 77 535
e 77 536
e 78 260
e 78 261
e 78 593
e 78 594
e 78 537
e 78 538
e 79 315
e 79 317
e 80 316
e 80 318
e 81 433
e 81 443
e 81 446
e 81 431
e 82 434
e 82 444
e 82 445
e 82 432
e 83 513
e 83 363
e 83 364
e 83 511
e 84 514
e 84 365
e 84 366
e 84 512
e 85 419
e 85 420
e 85 295
e 85 297
e 85 307
e 85 310
e 86 421
e 86 422
e 86 296
e 86 298
e 86 308
e 86 309
e 87 579
e 87 581
e 87 263
e 87 264
e 87 243
e 87 245
e 87 571
e 87 573
e 88 580
e 88 582
e 88 265
e 88 266
e 88 244
e 88 246
e 88 572
e 88 574
e 89 409
e 89 514
e 89 511
e 89 407
e 90 513
e 90 410
e 90 512
e 90 408
e 91 545
e 91 475
e 91 478
e 91 543
e 92 546
e 92 476
e 92 477
e 92 544
e 93 337
e 93 387
e 93 421
e 93 390
e 93 423
e 93 424
e 93 203
e 93 205
e 93 419
e 93 335
e 93 462
e 93 305
e 93 303
e 93 459
e 94 388
e 94 389
e 94 422
e 94 338
e 94 425
e 94 426
e 94 204
e 94 461
e 94 206
e 94 336
e 94 306
e 94 420
e 94 304
e 94 460
e 95 593
e 95 587
e 95 588
e 95 591
e 96 594
e 96 589
e 96 590
e 96 592
e 97 227
e 97 293
e 97 375
e 97 291
e 97 311
e 97 376
e 97 313
e 97 229
e 98 292
e 98 230
e 98 228
e 98 312
e 98 377
e 98 314
e 98 378
e 98 294
e 99 225
e 99 385
e 99 483
e 99 485
e 99 551
e 99 295
e 99 298
e 99 491
e 99 493
e 99 239
e 99 241
e 99 383
e 99 407
e 99 554
e 99 410
e 99 219
e 99 220
e 99 223
e 100 226
e 100 484
e 100 553
e 100 486
e 100 296
e 100 297
e 100 552
e 100 492
e 100 494
e 100 240
e 100 386
e 100 242
e 100 408
e 100 409
e 100 384
e 100 221
e 100 222
e 100 224
e 101 497
e 101 495
e 102 498
e 102 496
e 103 227
e 103 324
e 103 230
e 103 323
e 103 559
e 103 561
e 103 567
e 103 568
e 104 228
e 104 325
e 104 326
e 104 560
e 104 562
e 104 570
e 104 569
e 104 229
e 105 603
e 105 604
e 105 479
e 105 480
e 106 481
e 106 482
e 106 605
e 106 606
e 107 401
e 107 355
e 107 356
e 107 399
e 108 402
e 108 357
e 108 358
e 108 400
e 109 515
e 109 517
e 109 583
e 109 586
e 109 595
e 109 598
e 110 516
e 110 518
e 110 584
e 110 585
e 110 596
e 110 597
e 111 377
e 111 435
e 111 436
e 111 375
e 112 378
e 112 437
e 112 438
e 112 376
e 113 547
e 113 549
e 113 391
e 113 394
e 113 331
e 113 332
e 113 303
e 113 306
e 114 548
e 114 550
e 114 392
e 114 393
e 114 333
e 114 334
e 114 304
e 114 305
e 115 481
e 115 291
e 115 294
e 115 287
e 115 479
e 115 288
e 116 289
e 116 290
e 116 292
e 116 293
e 116 482
e 116 480
e 117 442
e 117 547
e 117 550
e 117 439
e 118 441
e 118 548
e 118 549
e 118 440
e 119 219
e 119 221
e 119 507
e 119 510
e 120 220
e 120 509
e 120 222
e 120 508
e 121 257
e 121 281
e 121 279
e 121 255
e 122 258
e 122 280
e 122 282
e 122 256
e 123 226
e 123 359
e 123 223
e 123 362
e 124 225
e 124 361
e 124 360
e 124 224
e 125 211
e 125 212
e 125 325
e 125 323
e 126 324
e 126 213
e 126 214
e 126 326
e 127 355
e 127 357
e 127 582
e 127 363
e 127 365
e 127 579
e 127 499
e 127 502
e 128 356
e 128 581
e 128 358
e 128 364
e 128 366
e 128 580
e 128 500
e 128 501
e 129 235
e 129 589
e 129 238
e 129 239
e 129 242
e 129 587
e 130 236
e 130 588
e 130 237
e 130 590
e 130 240
e 130 241
e 131 531
e 131 532
e 131 599
e 131 600
e 131 603
e 131 605
e 132 533
e 132 534
e 132 601
e 132 602
e 132 604
e 132 606
e 133 555
e 133 557
e 133 495
e 133 498
e 133 567
e 133 569
e 134 556
e 134 558
e 134 496
e 134 497
e 134 568
e 134 570
e 135 563
e 135 564
e 135 571
e 135 574
e 136 573
e 136 572
e 136 565
e 136 566
e 137 425
e 137 466
e 137 463
e 137 423
e 138 465
e 138 426
e 138 464
e 138 424
e 139 343
e 139 327
e 139 329
e 139 279
e 139 345
e 139 282
e 139 219
e 139 222
e 140 328
e 140 330
e 140 344
e 140 280
e 140 281
e 140 346
e 140 220
e 140 221
e 141 289
e 141 419
e 141 422
e 141 523
e 141 526
e 141 527
e 141 530
e 141 243
e 141 246
e 141 215
e 141 218
e 141 287
e 142 290
e 142 420
e 142 421
e 142 524
e 142 525
e 142 528
e 142 529
e 142 244
e 142 245
e 142 216
e 142 217
e 142 288
e 143 601
e 143 450
e 143 599
e 143 447
e 144 449
e 144 602
e 144 600
e 144 448
e 145 203
e 145 206
e 145 567
e 145 570
e 145 575
e 145 576
e 146 577
e 146 578
e 146 204
e 146 205
e 146 568
e 146 569
e 147 363
e 147 366
e 148 364
e 148 365
e 149 577
e 149 379
e 149 382
e 149 575
e 150 578
e 150 380
e 150 381
e 150 576
e 151 423
e 151 426
e 151 267
e 151 269
e 151 430
e 151 559
e 151 562
e 151 211
e 151 213
e 151 427
e 152 428
e 152 424
e 152 425
e 152 268
e 152 429
e 152 270
e 152 560
e 152 561
e 152 212
e 152 214
e 153 578
e 153 267
e 153 270
e 153 603
e 153 606
e 153 575
e 154 577
e 154 268
e 154 269
e 154 604
e 154 605
e 154 576
e 155 290
e 155 263
e 155 265
e 155 375
e 155 378
e 155 287
e 156 289
e 156 264
e 156 266
e 156 376
e 156 377
e 156 288
e 157 323
e 157 326
e 157 327
e 157 330
e 157 435
e 157 437
e 157 535
e 157 537
e 157 347
e 157 349
e 158 324
e 158 325
e 158 328
e 158 329
e 158 436
e 158 438
e 158 536
e 158 538
e 158 348
e 158 350
e 159 207
e 159 210
e 159 339
e 159 342
e 159 283
e 159 286
e 160 208
e 160 209
e 160 340
e 160 341
e 160 284
e 160 285
e 161 354
e 161 471
e 161 351
e 161 474
e 162 353
e 162 473
e 162 472
e 162 352
e 163 299
e 163 301
e 164 300
e 164 302
e 165 599
e 165 231
e 165 233
e 165 331
e 165 333
e 165 271
e 165 274
e 165 343
e 165 602
e 165 346
e 166 232
e 166 234
e 166 600
e 166 332
e 166 334
e 166 272
e 166 273
e 166 601
e 166 344
e 166 345
e 167 540
e 167 299
e 167 539
e 167 302
e 168 541
e 168 300
e 168 301
e 168 542
e 169 455
e 169 456
e 169 331
e 169 334
e 169 211
e 169 214
e 169 539
e 169 541
e 170 457
e 170 458
e 170 332
e 170 333
e 170 212
e 170 213
e 170 540
e 170 542
e 171 355
e 171 563
e 171 565
e 171 358
e 172 564
e 172 356
e 172 357
e 172 566
e 173 371
e 173 374
e 174 372
e 174 373
e 175 231
e 175 487
e 175 489
e 175 234
e 175 587
e 175 590
e 175 503
e 175 506
e 176 588
e 176 488
e 176 233
e 176 490
e 176 232
e 176 589
e 176 504
e 176 505
e 177 314
e 177 311
e 178 313
e 178 312
e 179 386
e 179 263
e 179 266
e 179 335
e 179 338
e 179 383
e 180 385
e 180 264
e 180 265
e 180 336
e 180 337
e 180 384
e 181 418
e 181 431
e 181 434
e 181 531
e 181 533
e 181 347
e 181 350
e 181 415
e 182 417
e 182 432
e 182 433
e 182 532
e 182 534
e 182 348
e 182 349
e 182 416
e 183 318
e 183 254
e 183 467
e 183 470
e 183 251
e 183 315
e 184 252
e 184 317
e 184 468
e 184 469
e 184 316
e 184 253
e 185 399
e 185 402
e 185 531
e 185 534
e 185 247
e 185 249
e 186 400
e 186 401
e 186 532
e 186 533
e 186 248
e 186 250
e 187 546
e 187 543
e 188 545
e 188 544
e 189 482
e 189 487
e 189 490
e 189 591
e 189 594
e 189 563
e 189 566
e 189 479
e 190 481
e 190 488
e 190 489
e 190 592
e 190 593
e 190 564
e 190 565
e 190 480
e 191 435
e 191 438
e 192 436
e 192 437
e 193 483
e 193 486
e 193 519
e 193 522
e 193 515
e 193 539
e 193 542
e 193 518
e 194 516
e 194 517
e 194 520
e 194 521
e 194 484
e 194 485
e 194 540
e 194 541
e 195 250
e 195 491
e 195 494
e 195 247
e 196 249
e 196 492
e 196 493
e 196 248
e 197 538
e 197 535
e 198 537
e 198 536
e 199 258
e 199 455
e 199 457
e 199 555
e 199 558
e 199 255
e 200 257
e 200 456
e 200 458
e 200 556
e 200 557
e 200 256
e 201 322
e 201 455
e 201 319
e 201 458
e 202 321
e 202 457
e 202 456
e 202 320